(set-logic QF_S)
(declare-fun var0 () String)
(declare-fun var1 () String)
(declare-fun var2 () String)
(declare-fun var3 () String)
(declare-fun var4 () String)
(declare-fun var5 () String)
(declare-fun var6 () String)
(declare-fun var7 () String)
(declare-fun var8 () String)
(declare-fun var9 () String)
(declare-fun var10 () String)
(declare-fun var11 () String)
(declare-fun var12 () String)
(declare-fun var13 () String)
(declare-fun var14 () String)
(declare-fun var15 () String)
(declare-fun var16 () String)
(declare-fun var17 () String)
(declare-fun var18 () String)
(declare-fun var19 () String)
(declare-fun var20 () String)
(declare-fun var21 () String)
(declare-fun var22 () String)
(declare-fun var23 () String)
(declare-fun var24 () String)
(declare-fun var25 () String)
(declare-fun var26 () String)
(declare-fun var27 () String)
(declare-fun var28 () String)
(declare-fun var29 () String)
(declare-fun var30 () String)
(declare-fun var31 () String)
(declare-fun var32 () String)
(declare-fun var33 () String)
(declare-fun var34 () String)
(declare-fun var35 () String)
(declare-fun var36 () String)
(declare-fun var37 () String)
(declare-fun var38 () String)
(declare-fun var39 () String)
(declare-fun var40 () String)
(declare-fun var41 () String)
(declare-fun var42 () String)
(declare-fun var43 () String)
(declare-fun var44 () String)
(declare-fun var45 () String)
(declare-fun var46 () String)
(declare-fun var47 () String)
(declare-fun var48 () String)
(declare-fun var49 () String)
(declare-fun var50 () String)
(declare-fun var51 () String)
(declare-fun var52 () String)
(declare-fun var53 () String)
(declare-fun var54 () String)
(declare-fun var55 () String)
(declare-fun var56 () String)
(declare-fun var57 () String)
(declare-fun var58 () String)
(declare-fun var59 () String)
(declare-fun var60 () String)
(assert (= var0 (str.++ var1 var2)))
(assert (= var2 (str.++ var3 var4)))
(assert (= var4 (str.++ var5 var6)))
(assert (= var6 (str.++ var7 var8)))
(assert (= var8 (str.++ var9 var10)))
(assert (= var10 (str.++ var11 var12)))
(assert (= var12 (str.++ var13 var14)))
(assert (= var14 (str.++ var15 var16)))
(assert (= var16 (str.++ var17 var18)))
(assert (= var18 (str.++ var19 var20)))
(assert (= var20 (str.++ var21 var22)))
(assert (= var22 (str.++ var23 var24)))
(assert (= var24 (str.++ var25 var26)))
(assert (= var26 (str.++ var27 var28)))
(assert (= var28 (str.++ var29 var30)))
(assert (= var30 (str.++ var31 var32)))
(assert (= var32 (str.++ var33 var34)))
(assert (= var34 (str.++ var35 var36)))
(assert (= var36 (str.++ var37 var38)))
(assert (= var38 (str.++ var39 var40)))
(assert (= var40 (str.++ var41 var42)))
(assert (= var42 (str.++ var43 var44)))
(assert (= var44 (str.++ var45 var46)))
(assert (= var46 (str.++ var47 var48)))
(assert (= var48 (str.++ var49 var50)))
(assert (= var50 (str.++ var51 var52)))
(assert (= var52 (str.++ var53 var54)))
(assert (= var54 (str.++ var55 var56)))
(assert (= var56 (str.++ var57 var58)))
(assert (= var58 (str.++ var59 var60)))
(assert (= var0 "solution"))
(assert (= "U" (str.at var41 520)))
(assert (= "l" (str.at var46 98)))
(assert (= "'" (str.at var26 168)))
(assert (= "z" (str.at var1 718)))
(assert (= "^" (str.at var39 391)))
(assert (= "Z" (str.at var53 250)))
(assert (= "1" (str.at var17 531)))
(assert (= "z" (str.at var8 380)))
(assert (= "f" (str.at var25 238)))
(assert (= "b" (str.at var1 304)))
(assert (= "e" (str.at var26 719)))
(assert (= "M" (str.at var43 509)))
(assert (= "W" (str.at var54 647)))
(assert (= "H" (str.at var45 403)))
(assert (= "?" (str.at var20 967)))
(assert (= "z" (str.at var57 539)))
(assert (= "B" (str.at var31 455)))
(assert (= "k" (str.at var27 195)))
(assert (= "x" (str.at var29 77)))
(assert (= "V" (str.at var2 587)))
(assert (= "P" (str.at var22 369)))
(assert (= "3" (str.at var29 806)))
(assert (= "1" (str.at var5 556)))
(assert (= "W" (str.at var57 745)))
(assert (= "~" (str.at var38 839)))
(assert (= "&" (str.at var40 159)))
(assert (= "," (str.at var27 622)))
(assert (= "m" (str.at var43 577)))
(assert (= "J" (str.at var57 870)))
(assert (= "D" (str.at var24 993)))
(assert (= "P" (str.at var23 594)))
(assert (= "m" (str.at var43 607)))
(assert (= "_" (str.at var42 26)))
(assert (= "1" (str.at var51 769)))
(assert (= "e" (str.at var50 982)))
(assert (= "s" (str.at var21 199)))
(assert (= "l" (str.at var21 440)))
(assert (= "5" (str.at var14 136)))
(assert (= "l" (str.at var12 608)))
(assert (= "a" (str.at var6 925)))
(assert (= "D" (str.at var40 633)))
(assert (= "!" (str.at var20 632)))
(assert (= "X" (str.at var16 605)))
(assert (= "t" (str.at var37 791)))
(assert (= "(" (str.at var30 125)))
(assert (= "1" (str.at var40 176)))
(assert (= "e" (str.at var4 352)))
(assert (= "k" (str.at var44 800)))
(assert (= "p" (str.at var34 836)))
(assert (= "0" (str.at var59 542)))
(assert (= "f" (str.at var28 509)))
(assert (= "Q" (str.at var40 33)))
(assert (= "S" (str.at var33 778)))
(assert (= "$" (str.at var26 394)))
(assert (= "k" (str.at var2 768)))
(assert (= "!" (str.at var13 256)))
(assert (= "3" (str.at var38 7)))
(assert (= "q" (str.at var44 903)))
(assert (= "~" (str.at var31 187)))
(assert (= "}" (str.at var2 289)))
(assert (= "Y" (str.at var54 679)))
(assert (= "Z" (str.at var32 858)))
(assert (= "H" (str.at var49 588)))
(assert (= """" (str.at var29 301)))
(assert (= "8" (str.at var56 653)))
(assert (= "I" (str.at var20 140)))
(assert (= "L" (str.at var14 842)))
(assert (= "l" (str.at var58 676)))
(assert (= "}" (str.at var45 156)))
(assert (= "|" (str.at var14 497)))
(assert (= "1" (str.at var41 816)))
(assert (= "y" (str.at var15 806)))
(assert (= "*" (str.at var41 734)))
(assert (= "j" (str.at var33 498)))
(assert (= "g" (str.at var13 767)))
(assert (= "&" (str.at var24 27)))
(assert (= "g" (str.at var30 566)))
(assert (= "e" (str.at var17 726)))
(assert (= """" (str.at var0 933)))
(assert (= "Z" (str.at var55 612)))
(assert (= "V" (str.at var43 953)))
(assert (= "q" (str.at var22 538)))
(assert (= "t" (str.at var52 703)))
(assert (= "{" (str.at var10 187)))
(assert (= "S" (str.at var14 262)))
(assert (= "B" (str.at var18 15)))
(assert (= "w" (str.at var33 876)))
(assert (= "a" (str.at var2 707)))
(assert (= "," (str.at var2 792)))
(assert (= "@" (str.at var19 640)))
(assert (= "\\" (str.at var5 662)))
(assert (= "{" (str.at var56 605)))
(assert (= "%" (str.at var10 246)))
(assert (= "k" (str.at var56 523)))
(assert (= "L" (str.at var39 777)))
(assert (= "|" (str.at var55 179)))
(assert (= ";" (str.at var14 52)))
(assert (= """" (str.at var12 470)))
(assert (= "(" (str.at var15 933)))
(assert (= "L" (str.at var20 14)))
(assert (= "h" (str.at var32 535)))
(assert (= "w" (str.at var15 607)))
(assert (= "N" (str.at var40 569)))
(assert (= "'" (str.at var15 718)))
(assert (= "E" (str.at var41 443)))
(assert (= "<" (str.at var48 194)))
(assert (= "@" (str.at var0 423)))
(assert (= "H" (str.at var9 392)))
(assert (= "k" (str.at var1 86)))
(assert (= "m" (str.at var56 659)))
(assert (= "V" (str.at var43 262)))
(assert (= "C" (str.at var18 500)))
(assert (= "z" (str.at var35 262)))
(assert (= "_" (str.at var28 758)))
(assert (= "a" (str.at var49 179)))
(assert (= "|" (str.at var15 561)))
(assert (= "b" (str.at var16 523)))
(assert (= "]" (str.at var44 776)))
(assert (= "|" (str.at var59 819)))
(assert (= "q" (str.at var30 66)))
(assert (= ")" (str.at var24 118)))
(assert (= ":" (str.at var60 116)))
(assert (= "}" (str.at var29 460)))
(assert (= "@" (str.at var38 90)))
(assert (= "7" (str.at var8 954)))
(assert (= "\\" (str.at var14 166)))
(assert (= "Z" (str.at var5 728)))
(assert (= "B" (str.at var14 924)))
(assert (= "~" (str.at var35 142)))
(assert (= "h" (str.at var38 551)))
(assert (= "i" (str.at var53 579)))
(assert (= "w" (str.at var29 226)))
(assert (= ";" (str.at var45 956)))
(assert (= "?" (str.at var11 432)))
(assert (= "b" (str.at var60 514)))
(assert (= "R" (str.at var50 994)))
(assert (= "o" (str.at var44 575)))
(assert (= "_" (str.at var18 91)))
(assert (= "[" (str.at var38 320)))
(assert (= "5" (str.at var47 490)))
(assert (= "x" (str.at var49 392)))
(assert (= "N" (str.at var12 211)))
(assert (= "x" (str.at var14 456)))
(assert (= "O" (str.at var43 899)))
(assert (= "h" (str.at var16 542)))
(assert (= "T" (str.at var20 275)))
(assert (= "y" (str.at var29 817)))
(assert (= "&" (str.at var6 807)))
(assert (= "}" (str.at var54 305)))
(assert (= "R" (str.at var36 201)))
(assert (= "@" (str.at var39 115)))
(assert (= "]" (str.at var24 538)))
(assert (= "[" (str.at var40 769)))
(assert (= "[" (str.at var8 497)))
(assert (= "5" (str.at var37 74)))
(assert (= "5" (str.at var22 215)))
(assert (= "$" (str.at var26 524)))
(assert (= "[" (str.at var37 112)))
(assert (= "9" (str.at var12 454)))
(assert (= "6" (str.at var9 530)))
(assert (= "H" (str.at var22 563)))
(assert (= "k" (str.at var32 490)))
(assert (= "P" (str.at var4 953)))
(assert (= "T" (str.at var33 216)))
(assert (= "." (str.at var56 724)))
(assert (= "T" (str.at var39 270)))
(assert (= "V" (str.at var58 34)))
(assert (= "=" (str.at var5 175)))
(assert (= "m" (str.at var26 241)))
(assert (= "p" (str.at var47 954)))
(assert (= "S" (str.at var27 624)))
(assert (= "i" (str.at var24 532)))
(assert (= "I" (str.at var58 25)))
(assert (= "G" (str.at var7 473)))
(assert (= "|" (str.at var54 987)))
(assert (= "|" (str.at var40 613)))
(assert (= "N" (str.at var7 595)))
(assert (= "R" (str.at var56 291)))
(assert (= "T" (str.at var51 982)))
(assert (= "P" (str.at var37 684)))
(assert (= "W" (str.at var4 415)))
(assert (= "*" (str.at var0 465)))
(assert (= ":" (str.at var0 322)))
(assert (= "v" (str.at var29 761)))
(assert (= "*" (str.at var19 422)))
(assert (= "L" (str.at var20 336)))
(assert (= "y" (str.at var59 634)))
(assert (= "l" (str.at var43 559)))
(assert (= "$" (str.at var3 844)))
(assert (= "u" (str.at var29 471)))
(assert (= "U" (str.at var24 902)))
(assert (= "H" (str.at var29 670)))
(assert (= "," (str.at var15 979)))
(assert (= "=" (str.at var5 109)))
(assert (= "K" (str.at var34 999)))
(assert (= "." (str.at var27 620)))
(assert (= "g" (str.at var48 231)))
(assert (= "(" (str.at var30 272)))
(assert (= """" (str.at var29 894)))
(assert (= ":" (str.at var2 284)))
(assert (= "u" (str.at var53 629)))
(assert (= "V" (str.at var7 728)))
(assert (= "f" (str.at var32 452)))
(assert (= "5" (str.at var4 97)))
(assert (= "^" (str.at var59 376)))
(assert (= "|" (str.at var50 626)))
(assert (= "9" (str.at var8 488)))
(assert (= "/" (str.at var35 56)))
(assert (= "2" (str.at var30 255)))
(assert (= "$" (str.at var55 373)))
(assert (= "B" (str.at var41 373)))
(assert (= "%" (str.at var6 974)))
(assert (= "A" (str.at var2 677)))
(assert (= "M" (str.at var33 882)))
(assert (= "E" (str.at var53 628)))
(assert (= "^" (str.at var23 493)))
(assert (= "n" (str.at var24 988)))
(assert (= "k" (str.at var35 669)))
(assert (= "/" (str.at var29 236)))
(assert (= "v" (str.at var2 8)))
(assert (= "N" (str.at var1 188)))
(assert (= "%" (str.at var42 181)))
(assert (= "P" (str.at var1 770)))
(assert (= "s" (str.at var46 300)))
(assert (= "E" (str.at var19 408)))
(assert (= "]" (str.at var47 829)))
(assert (= "$" (str.at var36 482)))
(assert (= "Y" (str.at var19 241)))
(assert (= "3" (str.at var0 595)))
(assert (= "i" (str.at var19 726)))
(assert (= "$" (str.at var60 89)))
(assert (= "\\" (str.at var1 866)))
(assert (= "6" (str.at var55 515)))
(assert (= "O" (str.at var16 696)))
(assert (= "E" (str.at var12 5)))
(assert (= "Q" (str.at var33 450)))
(assert (= "h" (str.at var9 173)))
(assert (= "5" (str.at var33 898)))
(assert (= "b" (str.at var16 400)))
(assert (= "Y" (str.at var32 774)))
(assert (= "E" (str.at var41 568)))
(assert (= "j" (str.at var18 776)))
(assert (= "4" (str.at var13 321)))
(assert (= "-" (str.at var16 122)))
(assert (= "l" (str.at var50 702)))
(assert (= "3" (str.at var54 703)))
(assert (= "h" (str.at var45 335)))
(assert (= "a" (str.at var4 601)))
(assert (= "n" (str.at var46 270)))
(assert (= "i" (str.at var20 494)))
(assert (= "h" (str.at var53 384)))
(assert (= "W" (str.at var59 513)))
(assert (= "4" (str.at var17 898)))
(assert (= "+" (str.at var19 728)))
(assert (= "l" (str.at var55 252)))
(assert (= "2" (str.at var26 471)))
(assert (= "g" (str.at var24 291)))
(assert (= "t" (str.at var42 208)))
(assert (= "l" (str.at var46 381)))
(assert (= "]" (str.at var48 738)))
(assert (= "C" (str.at var11 203)))
(assert (= "n" (str.at var49 122)))
(assert (= "O" (str.at var34 300)))
(assert (= "C" (str.at var41 639)))
(assert (= "!" (str.at var8 593)))
(assert (= ")" (str.at var39 39)))
(assert (= "C" (str.at var8 586)))
(assert (= ">" (str.at var38 881)))
(assert (= "=" (str.at var51 928)))
(assert (= "0" (str.at var60 570)))
(assert (= "|" (str.at var12 92)))
(assert (= "d" (str.at var57 194)))
(assert (= ";" (str.at var35 452)))
(assert (= "i" (str.at var47 477)))
(assert (= "w" (str.at var54 11)))
(assert (= "]" (str.at var4 494)))
(assert (= "2" (str.at var0 935)))
(assert (= "p" (str.at var59 724)))
(assert (= "|" (str.at var13 17)))
(assert (= ">" (str.at var16 493)))
(assert (= ">" (str.at var48 440)))
(assert (= "N" (str.at var44 407)))
(assert (= "$" (str.at var24 397)))
(assert (= "'" (str.at var17 390)))
(assert (= "v" (str.at var46 209)))
(assert (= "[" (str.at var18 782)))
(assert (= "." (str.at var41 101)))
(assert (= "f" (str.at var15 537)))
(assert (= "d" (str.at var1 574)))
(assert (= "s" (str.at var5 782)))
(assert (= "n" (str.at var43 367)))
(assert (= "j" (str.at var0 212)))
(assert (= "'" (str.at var20 464)))
(assert (= "V" (str.at var19 988)))
(assert (= "`" (str.at var11 98)))
(assert (= "(" (str.at var59 85)))
(assert (= "q" (str.at var60 596)))
(assert (= "?" (str.at var11 853)))
(assert (= "#" (str.at var3 681)))
(assert (= "{" (str.at var48 557)))
(assert (= "." (str.at var55 157)))
(assert (= "/" (str.at var60 634)))
(assert (= "f" (str.at var38 270)))
(assert (= "n" (str.at var25 725)))
(assert (= "h" (str.at var14 338)))
(assert (= "~" (str.at var24 3)))
(assert (= "," (str.at var55 258)))
(assert (= "M" (str.at var14 546)))
(assert (= "`" (str.at var43 323)))
(assert (= "&" (str.at var43 13)))
(assert (= "k" (str.at var36 757)))
(assert (= "7" (str.at var16 309)))
(assert (= "|" (str.at var24 796)))
(assert (= "N" (str.at var60 654)))
(assert (= "6" (str.at var28 822)))
(assert (= "G" (str.at var33 237)))
(assert (= "$" (str.at var34 355)))
(assert (= "\\" (str.at var43 382)))
(assert (= "z" (str.at var39 975)))
(assert (= "4" (str.at var50 303)))
(assert (= "H" (str.at var30 421)))
(assert (= "=" (str.at var13 853)))
(assert (= "l" (str.at var42 656)))
(assert (= "2" (str.at var11 962)))
(assert (= "o" (str.at var6 448)))
(assert (= "r" (str.at var3 786)))
(assert (= "0" (str.at var21 222)))
(assert (= "e" (str.at var59 811)))
(assert (= "0" (str.at var4 982)))
(assert (= "F" (str.at var21 84)))
(assert (= ":" (str.at var36 287)))
(assert (= "Z" (str.at var29 366)))
(assert (= "9" (str.at var49 237)))
(assert (= "$" (str.at var3 566)))
(assert (= "~" (str.at var26 161)))
(assert (= "a" (str.at var7 320)))
(assert (= "B" (str.at var29 219)))
(assert (= "o" (str.at var17 266)))
(assert (= "s" (str.at var28 710)))
(assert (= "}" (str.at var0 286)))
(assert (= "f" (str.at var40 564)))
(assert (= "x" (str.at var57 390)))
(assert (= "@" (str.at var52 521)))
(assert (= "4" (str.at var30 701)))
(assert (= "S" (str.at var21 725)))
(assert (= "D" (str.at var7 395)))
(assert (= "<" (str.at var2 396)))
(assert (= "N" (str.at var49 36)))
(assert (= "u" (str.at var32 573)))
(assert (= "C" (str.at var60 64)))
(assert (= "7" (str.at var60 197)))
(assert (= "6" (str.at var32 977)))
(assert (= "&" (str.at var2 77)))
(assert (= "h" (str.at var22 60)))
(assert (= "h" (str.at var33 405)))
(assert (= "[" (str.at var41 464)))
(assert (= "A" (str.at var34 850)))
(assert (= "U" (str.at var35 796)))
(assert (= "t" (str.at var24 981)))
(assert (= "S" (str.at var57 950)))
(assert (= "H" (str.at var38 606)))
(assert (= "'" (str.at var19 544)))
(assert (= "r" (str.at var17 825)))
(assert (= "W" (str.at var28 309)))
(assert (= "q" (str.at var54 63)))
(assert (= "a" (str.at var26 121)))
(assert (= "y" (str.at var49 34)))
(assert (= "K" (str.at var20 738)))
(assert (= "%" (str.at var32 132)))
(assert (= "Y" (str.at var59 778)))
(assert (= "3" (str.at var50 620)))
(assert (= "=" (str.at var26 229)))
(assert (= "x" (str.at var42 738)))
(assert (= "F" (str.at var49 81)))
(assert (= "`" (str.at var12 706)))
(assert (= "F" (str.at var60 406)))
(assert (= "r" (str.at var11 971)))
(assert (= "Y" (str.at var47 243)))
(assert (= "q" (str.at var48 632)))
(assert (= "@" (str.at var22 438)))
(assert (= "k" (str.at var5 704)))
(assert (= "h" (str.at var0 318)))
(assert (= "a" (str.at var44 74)))
(assert (= "n" (str.at var46 396)))
(assert (= "3" (str.at var14 171)))
(assert (= ">" (str.at var17 296)))
(assert (= "," (str.at var50 748)))
(assert (= "J" (str.at var46 556)))
(assert (= "n" (str.at var9 285)))
(assert (= "B" (str.at var54 235)))
(assert (= "h" (str.at var40 908)))
(assert (= "q" (str.at var15 643)))
(assert (= "d" (str.at var54 612)))
(assert (= "$" (str.at var40 981)))
(assert (= "H" (str.at var8 902)))
(assert (= "i" (str.at var46 398)))
(assert (= "s" (str.at var9 519)))
(assert (= ")" (str.at var14 709)))
(assert (= "s" (str.at var30 96)))
(assert (= ")" (str.at var35 264)))
(assert (= "1" (str.at var57 406)))
(assert (= "D" (str.at var37 760)))
(assert (= "2" (str.at var14 731)))
(assert (= "K" (str.at var36 589)))
(assert (= "g" (str.at var19 37)))
(assert (= "`" (str.at var7 271)))
(assert (= "l" (str.at var19 642)))
(assert (= "T" (str.at var4 428)))
(assert (= "t" (str.at var57 787)))
(assert (= "," (str.at var52 503)))
(assert (= "L" (str.at var8 101)))
(assert (= "$" (str.at var14 216)))
(assert (= "q" (str.at var3 860)))
(assert (= "l" (str.at var48 43)))
(assert (= "d" (str.at var60 996)))
(assert (= """" (str.at var32 709)))
(assert (= "z" (str.at var52 377)))
(assert (= "x" (str.at var40 664)))
(assert (= "H" (str.at var3 794)))
(assert (= "#" (str.at var30 965)))
(assert (= "0" (str.at var55 411)))
(assert (= "K" (str.at var17 50)))
(assert (= "'" (str.at var31 773)))
(assert (= "K" (str.at var32 556)))
(assert (= "5" (str.at var29 402)))
(assert (= "J" (str.at var48 636)))
(assert (= "." (str.at var52 437)))
(assert (= "P" (str.at var10 855)))
(assert (= "M" (str.at var5 42)))
(assert (= "I" (str.at var26 391)))
(assert (= "S" (str.at var6 948)))
(assert (= "/" (str.at var33 631)))
(assert (= "S" (str.at var47 260)))
(assert (= "," (str.at var35 451)))
(assert (= "\\" (str.at var3 707)))
(assert (= "V" (str.at var42 373)))
(assert (= "b" (str.at var51 231)))
(assert (= "X" (str.at var33 538)))
(assert (= "y" (str.at var34 170)))
(assert (= "f" (str.at var14 979)))
(assert (= "W" (str.at var49 156)))
(assert (= "Z" (str.at var47 7)))
(assert (= "'" (str.at var20 69)))
(assert (= "M" (str.at var40 224)))
(assert (= "i" (str.at var25 887)))
(assert (= "$" (str.at var24 23)))
(assert (= "I" (str.at var51 413)))
(assert (= "f" (str.at var46 639)))
(assert (= "a" (str.at var20 6)))
(assert (= "#" (str.at var43 541)))
(assert (= ";" (str.at var48 556)))
(assert (= "<" (str.at var24 779)))
(assert (= ")" (str.at var38 370)))
(assert (= "t" (str.at var57 858)))
(assert (= "B" (str.at var49 664)))
(assert (= "@" (str.at var6 123)))
(assert (= "." (str.at var46 595)))
(assert (= "H" (str.at var50 775)))
(assert (= "u" (str.at var55 185)))
(assert (= "D" (str.at var44 426)))
(assert (= "u" (str.at var9 627)))
(assert (= "k" (str.at var60 664)))
(assert (= "G" (str.at var44 512)))
(assert (= "h" (str.at var57 833)))
(assert (= "y" (str.at var9 820)))
(assert (= "M" (str.at var9 821)))
(assert (= "#" (str.at var22 694)))
(assert (= "9" (str.at var42 521)))
(assert (= "Q" (str.at var16 551)))
(assert (= "C" (str.at var49 443)))
(assert (= "{" (str.at var45 943)))
(assert (= "*" (str.at var6 871)))
(assert (= """" (str.at var45 179)))
(assert (= "e" (str.at var49 93)))
(assert (= "p" (str.at var47 669)))
(assert (= "-" (str.at var46 792)))
(assert (= "k" (str.at var42 127)))
(assert (= "G" (str.at var19 384)))
(assert (= "E" (str.at var7 553)))
(assert (= "(" (str.at var0 310)))
(assert (= "Z" (str.at var26 422)))
(assert (= "M" (str.at var38 101)))
(assert (= "~" (str.at var18 365)))
(assert (= "A" (str.at var23 28)))
(assert (= "'" (str.at var3 641)))
(assert (= "S" (str.at var44 724)))
(assert (= "7" (str.at var57 423)))
(assert (= "L" (str.at var9 124)))
(assert (= "m" (str.at var10 869)))
(assert (= "c" (str.at var36 260)))
(assert (= "p" (str.at var16 15)))
(assert (= "A" (str.at var56 995)))
(assert (= "T" (str.at var49 22)))
(assert (= "g" (str.at var31 93)))
(assert (= "z" (str.at var4 768)))
(assert (= "|" (str.at var60 779)))
(assert (= "}" (str.at var20 641)))
(assert (= "s" (str.at var19 811)))
(assert (= "L" (str.at var46 149)))
(assert (= "A" (str.at var28 126)))
(assert (= "_" (str.at var56 925)))
(assert (= "o" (str.at var29 239)))
(assert (= "n" (str.at var44 936)))
(assert (= "N" (str.at var3 247)))
(assert (= "?" (str.at var37 309)))
(assert (= "y" (str.at var23 72)))
(assert (= "2" (str.at var55 681)))
(assert (= "E" (str.at var3 500)))
(assert (= "V" (str.at var40 550)))
(assert (= "p" (str.at var6 232)))
(assert (= "I" (str.at var22 85)))
(assert (= "p" (str.at var52 189)))
(assert (= "q" (str.at var26 458)))
(assert (= "/" (str.at var12 716)))
(assert (= "~" (str.at var33 480)))
(assert (= "|" (str.at var41 301)))
(assert (= "z" (str.at var59 637)))
(assert (= "8" (str.at var23 947)))
(assert (= "9" (str.at var6 58)))
(assert (= "j" (str.at var8 24)))
(assert (= "`" (str.at var46 348)))
(assert (= "I" (str.at var24 221)))
(assert (= "M" (str.at var0 113)))
(assert (= "8" (str.at var19 855)))
(assert (= "]" (str.at var25 373)))
(assert (= "H" (str.at var19 306)))
(assert (= "9" (str.at var7 615)))
(assert (= "p" (str.at var12 787)))
(assert (= "Z" (str.at var22 118)))
(assert (= "^" (str.at var36 861)))
(assert (= ":" (str.at var29 414)))
(assert (= "<" (str.at var37 603)))
(assert (= "M" (str.at var20 648)))
(assert (= "8" (str.at var40 110)))
(assert (= "<" (str.at var0 22)))
(assert (= "r" (str.at var18 205)))
(assert (= ":" (str.at var27 138)))
(assert (= "j" (str.at var35 918)))
(assert (= "K" (str.at var39 200)))
(assert (= "^" (str.at var21 935)))
(assert (= "@" (str.at var35 223)))
(assert (= "o" (str.at var5 923)))
(assert (= "A" (str.at var45 270)))
(assert (= "J" (str.at var6 398)))
(assert (= "m" (str.at var2 45)))
(assert (= """" (str.at var53 553)))
(assert (= "L" (str.at var42 17)))
(assert (= "A" (str.at var54 82)))
(assert (= "1" (str.at var50 499)))
(assert (= "i" (str.at var51 622)))
(assert (= "n" (str.at var14 184)))
(assert (= "R" (str.at var43 111)))
(assert (= "+" (str.at var24 128)))
(assert (= "D" (str.at var47 256)))
(assert (= "'" (str.at var10 898)))
(assert (= "O" (str.at var36 429)))
(assert (= "w" (str.at var60 606)))
(assert (= "U" (str.at var3 592)))
(assert (= "L" (str.at var22 997)))
(assert (= "+" (str.at var49 66)))
(assert (= "2" (str.at var0 803)))
(assert (= "@" (str.at var10 395)))
(assert (= "_" (str.at var34 981)))
(assert (= "<" (str.at var18 399)))
(assert (= ">" (str.at var18 138)))
(assert (= "~" (str.at var12 840)))
(assert (= "k" (str.at var53 175)))
(assert (= "[" (str.at var22 667)))
(assert (= "p" (str.at var52 372)))
(assert (= "K" (str.at var56 543)))
(assert (= "&" (str.at var9 637)))
(assert (= "C" (str.at var59 557)))
(assert (= "3" (str.at var60 189)))
(assert (= "[" (str.at var6 552)))
(assert (= "W" (str.at var42 426)))
(assert (= """" (str.at var56 86)))
(assert (= "r" (str.at var20 768)))
(assert (= "U" (str.at var47 743)))
(assert (= "?" (str.at var5 627)))
(assert (= "6" (str.at var28 996)))
(assert (= "p" (str.at var41 655)))
(assert (= "M" (str.at var36 123)))
(assert (= "D" (str.at var36 747)))
(assert (= "j" (str.at var36 723)))
(assert (= "<" (str.at var0 453)))
(assert (= "$" (str.at var50 808)))
(assert (= "+" (str.at var6 560)))
(assert (= "%" (str.at var28 942)))
(assert (= "c" (str.at var42 545)))
(assert (= "!" (str.at var39 613)))
(assert (= "v" (str.at var54 352)))
(assert (= "(" (str.at var44 772)))
(assert (= "R" (str.at var43 16)))
(assert (= "\\" (str.at var46 534)))
(assert (= "A" (str.at var1 461)))
(assert (= "9" (str.at var21 242)))
(assert (= "*" (str.at var57 852)))
(assert (= "7" (str.at var47 770)))
(assert (= "'" (str.at var26 88)))
(assert (= "`" (str.at var20 232)))
(assert (= "`" (str.at var0 112)))
(assert (= "2" (str.at var8 318)))
(assert (= "'" (str.at var59 903)))
(assert (= "+" (str.at var28 510)))
(assert (= "\\" (str.at var35 996)))
(assert (= "r" (str.at var40 793)))
(assert (= "a" (str.at var43 9)))
(assert (= "J" (str.at var39 925)))
(assert (= ">" (str.at var15 786)))
(assert (= "*" (str.at var35 680)))
(assert (= "B" (str.at var47 610)))
(assert (= "I" (str.at var54 988)))
(assert (= "{" (str.at var27 583)))
(assert (= "v" (str.at var9 213)))
(assert (= "n" (str.at var17 578)))
(assert (= "T" (str.at var20 190)))
(assert (= "&" (str.at var36 737)))
(assert (= "'" (str.at var40 798)))
(assert (= ")" (str.at var46 305)))
(assert (= "k" (str.at var40 275)))
(assert (= "]" (str.at var9 347)))
(assert (= ">" (str.at var56 337)))
(assert (= "7" (str.at var36 733)))
(assert (= "N" (str.at var36 983)))
(assert (= "&" (str.at var14 154)))
(assert (= "*" (str.at var31 198)))
(assert (= "4" (str.at var47 397)))
(assert (= "o" (str.at var9 822)))
(assert (= "u" (str.at var42 778)))
(assert (= "I" (str.at var56 253)))
(assert (= "7" (str.at var32 147)))
(assert (= "Y" (str.at var39 220)))
(assert (= "~" (str.at var20 928)))
(assert (= "4" (str.at var38 112)))
(assert (= "," (str.at var57 945)))
(assert (= "]" (str.at var19 380)))
(assert (= "x" (str.at var18 504)))
(assert (= "a" (str.at var3 933)))
(assert (= ":" (str.at var51 84)))
(assert (= "F" (str.at var60 438)))
(assert (= "C" (str.at var29 18)))
(assert (= "{" (str.at var37 455)))
(assert (= "q" (str.at var22 509)))
(assert (= "S" (str.at var49 446)))
(assert (= ";" (str.at var60 411)))
(assert (= "p" (str.at var14 22)))
(assert (= "?" (str.at var46 77)))
(assert (= "'" (str.at var27 111)))
(assert (= "G" (str.at var47 263)))
(assert (= "y" (str.at var27 371)))
(assert (= "t" (str.at var23 237)))
(assert (= "$" (str.at var48 549)))
(assert (= "V" (str.at var55 311)))
(assert (= "u" (str.at var37 236)))
(assert (= "=" (str.at var37 168)))
(assert (= "G" (str.at var48 260)))
(assert (= "!" (str.at var2 668)))
(assert (= "o" (str.at var51 206)))
(assert (= "?" (str.at var53 733)))
(assert (= "q" (str.at var57 987)))
(assert (= ":" (str.at var15 129)))
(assert (= "0" (str.at var45 690)))
(assert (= "b" (str.at var28 177)))
(assert (= "%" (str.at var19 211)))
(assert (= "$" (str.at var42 29)))
(assert (= "Z" (str.at var38 479)))
(assert (= "5" (str.at var36 394)))
(assert (= "1" (str.at var56 340)))
(assert (= "3" (str.at var51 153)))
(assert (= "R" (str.at var54 896)))
(assert (= "S" (str.at var1 49)))
(assert (= "n" (str.at var23 690)))
(assert (= "=" (str.at var4 495)))
(assert (= "<" (str.at var41 439)))
(assert (= "w" (str.at var54 112)))
(assert (= "0" (str.at var55 806)))
(assert (= "F" (str.at var15 154)))
(assert (= "*" (str.at var13 156)))
(assert (= "n" (str.at var43 983)))
(assert (= "j" (str.at var60 109)))
(assert (= "k" (str.at var46 875)))
(assert (= "l" (str.at var46 511)))
(assert (= """" (str.at var37 512)))
(assert (= "/" (str.at var14 444)))
(assert (= "t" (str.at var26 324)))
(assert (= "H" (str.at var37 685)))
(assert (= "P" (str.at var35 265)))
(assert (= "H" (str.at var44 872)))
(assert (= "b" (str.at var43 653)))
(assert (= "N" (str.at var19 676)))
(assert (= ")" (str.at var28 314)))
(assert (= "k" (str.at var40 620)))
(assert (= "v" (str.at var32 402)))
(assert (= "s" (str.at var1 553)))
(assert (= "&" (str.at var44 977)))
(assert (= "W" (str.at var5 633)))
(assert (= "m" (str.at var13 995)))
(assert (= "8" (str.at var3 756)))
(assert (= "," (str.at var12 846)))
(assert (= "x" (str.at var15 544)))
(assert (= "u" (str.at var53 772)))
(assert (= "x" (str.at var24 430)))
(assert (= "6" (str.at var60 477)))
(assert (= "o" (str.at var28 376)))
(assert (= "A" (str.at var51 379)))
(assert (= "j" (str.at var20 206)))
(assert (= "a" (str.at var53 369)))
(assert (= "i" (str.at var23 37)))
(assert (= "L" (str.at var43 233)))
(assert (= "4" (str.at var19 865)))
(assert (= "c" (str.at var37 821)))
(assert (= "Y" (str.at var51 191)))
(assert (= "3" (str.at var48 126)))
(assert (= "O" (str.at var32 62)))
(assert (= "$" (str.at var54 407)))
(assert (= "D" (str.at var22 161)))
(assert (= "u" (str.at var54 129)))
(assert (= "L" (str.at var9 903)))
(assert (= "3" (str.at var40 698)))
(assert (= "C" (str.at var49 668)))
(assert (= "1" (str.at var54 191)))
(assert (= "f" (str.at var44 692)))
(assert (= "t" (str.at var22 459)))
(assert (= "I" (str.at var6 267)))
(assert (= "I" (str.at var2 759)))
(assert (= ":" (str.at var44 397)))
(assert (= "j" (str.at var12 303)))
(assert (= "{" (str.at var34 231)))
(assert (= "}" (str.at var46 358)))
(assert (= "t" (str.at var55 943)))
(assert (= "2" (str.at var18 408)))
(assert (= "f" (str.at var45 366)))
(assert (= "H" (str.at var25 125)))
(assert (= "[" (str.at var43 866)))
(assert (= "V" (str.at var16 486)))
(assert (= "v" (str.at var28 615)))
(assert (= "-" (str.at var4 812)))
(assert (= "Z" (str.at var1 411)))
(assert (= "4" (str.at var24 394)))
(assert (= "q" (str.at var12 462)))
(assert (= """" (str.at var32 655)))
(assert (= "^" (str.at var43 41)))
(assert (= "u" (str.at var33 100)))
(assert (= "m" (str.at var10 120)))
(assert (= "o" (str.at var31 569)))
(assert (= "z" (str.at var24 13)))
(assert (= "X" (str.at var21 419)))
(assert (= "'" (str.at var42 902)))
(assert (= "3" (str.at var51 459)))
(assert (= "k" (str.at var55 676)))
(assert (= "`" (str.at var60 723)))
(assert (= "S" (str.at var28 68)))
(assert (= "9" (str.at var10 650)))
(assert (= "T" (str.at var4 546)))
(assert (= "u" (str.at var12 421)))
(assert (= "@" (str.at var9 407)))
(assert (= ">" (str.at var38 565)))
(assert (= "p" (str.at var5 215)))
(assert (= "3" (str.at var6 335)))
(assert (= "&" (str.at var58 290)))
(assert (= "z" (str.at var36 645)))
(assert (= "%" (str.at var8 458)))
(assert (= "0" (str.at var60 167)))
(assert (= "'" (str.at var26 167)))
(assert (= "&" (str.at var39 612)))
(assert (= "^" (str.at var30 377)))
(assert (= "N" (str.at var6 608)))
(assert (= "z" (str.at var24 649)))
(assert (= "%" (str.at var0 245)))
(assert (= ";" (str.at var43 526)))
(assert (= "+" (str.at var7 136)))
(assert (= "P" (str.at var40 133)))
(assert (= "y" (str.at var43 443)))
(assert (= ">" (str.at var10 379)))
(assert (= "L" (str.at var22 552)))
(assert (= "z" (str.at var41 492)))
(assert (= "o" (str.at var24 426)))
(assert (= "*" (str.at var24 621)))
(assert (= "q" (str.at var8 263)))
(assert (= "X" (str.at var24 808)))
(assert (= "U" (str.at var59 812)))
(assert (= "?" (str.at var2 867)))
(assert (= "/" (str.at var31 219)))
(assert (= "M" (str.at var50 641)))
(assert (= "-" (str.at var17 358)))
(assert (= "t" (str.at var41 468)))
(assert (= "." (str.at var15 476)))
(assert (= "7" (str.at var37 438)))
(assert (= "W" (str.at var42 994)))
(assert (= "s" (str.at var13 758)))
(assert (= "l" (str.at var17 926)))
(assert (= "/" (str.at var32 13)))
(assert (= "J" (str.at var2 69)))
(assert (= "k" (str.at var0 211)))
(assert (= "v" (str.at var60 62)))
(assert (= "G" (str.at var10 948)))
(assert (= ":" (str.at var2 942)))
(assert (= "c" (str.at var45 310)))
(assert (= "a" (str.at var48 64)))
(assert (= "b" (str.at var36 452)))
(assert (= "a" (str.at var8 630)))
(assert (= "-" (str.at var57 149)))
(assert (= "C" (str.at var22 756)))
(assert (= "!" (str.at var16 504)))
(assert (= "F" (str.at var14 700)))
(assert (= ")" (str.at var4 786)))
(assert (= "C" (str.at var3 842)))
(assert (= "g" (str.at var31 134)))
(assert (= "x" (str.at var15 550)))
(assert (= "[" (str.at var52 718)))
(assert (= "O" (str.at var24 315)))
(assert (= "&" (str.at var43 581)))
(assert (= "}" (str.at var13 978)))
(assert (= "w" (str.at var27 96)))
(assert (= "d" (str.at var1 413)))
(assert (= "m" (str.at var55 950)))
(assert (= "L" (str.at var19 940)))
(assert (= "W" (str.at var4 580)))
(assert (= "h" (str.at var1 81)))
(assert (= "o" (str.at var37 230)))
(assert (= "i" (str.at var26 275)))
(assert (= "v" (str.at var54 64)))
(assert (= "S" (str.at var35 78)))
(assert (= "w" (str.at var52 201)))
(assert (= "F" (str.at var10 176)))
(assert (= "^" (str.at var49 596)))
(assert (= "d" (str.at var10 139)))
(assert (= "n" (str.at var8 893)))
(assert (= "m" (str.at var52 509)))
(assert (= "T" (str.at var53 888)))
(assert (= ";" (str.at var52 329)))
(assert (= "S" (str.at var1 470)))
(assert (= "~" (str.at var31 270)))
(assert (= "@" (str.at var0 135)))
(assert (= "k" (str.at var2 568)))
(assert (= "\\" (str.at var29 642)))
(assert (= "e" (str.at var21 827)))
(assert (= "N" (str.at var16 383)))
(assert (= "f" (str.at var20 519)))
(assert (= "l" (str.at var13 544)))
(assert (= "," (str.at var26 601)))
(assert (= "@" (str.at var12 70)))
(assert (= "&" (str.at var11 344)))
(assert (= "\\" (str.at var8 673)))
(assert (= "1" (str.at var26 286)))
(assert (= """" (str.at var6 995)))
(assert (= "(" (str.at var60 658)))
(assert (= "~" (str.at var44 81)))
(assert (= "W" (str.at var34 296)))
(assert (= "q" (str.at var11 179)))
(assert (= "6" (str.at var29 185)))
(assert (= "m" (str.at var36 454)))
(assert (= "W" (str.at var7 883)))
(assert (= "y" (str.at var29 603)))
(assert (= "w" (str.at var12 996)))
(assert (= "v" (str.at var12 406)))
(assert (= "F" (str.at var53 301)))
(assert (= "3" (str.at var33 613)))
(assert (= "^" (str.at var52 262)))
(assert (= "h" (str.at var33 779)))
(assert (= "m" (str.at var24 434)))
(assert (= "D" (str.at var33 539)))
(assert (= "n" (str.at var10 172)))
(assert (= "s" (str.at var11 353)))
(assert (= "j" (str.at var14 922)))
(assert (= "%" (str.at var60 450)))
(assert (= ":" (str.at var52 112)))
(assert (= "p" (str.at var38 543)))
(assert (= "9" (str.at var2 595)))
(assert (= "H" (str.at var15 48)))
(assert (= "W" (str.at var27 48)))
(assert (= "R" (str.at var47 879)))
(assert (= "4" (str.at var31 601)))
(assert (= "?" (str.at var30 828)))
(assert (= "0" (str.at var28 303)))
(assert (= "{" (str.at var19 807)))
(assert (= "k" (str.at var25 420)))
(assert (= "k" (str.at var19 167)))
(assert (= "$" (str.at var20 724)))
(assert (= "a" (str.at var39 273)))
(assert (= ":" (str.at var10 98)))
(assert (= "L" (str.at var0 408)))
(assert (= "-" (str.at var35 105)))
(assert (= "s" (str.at var45 888)))
(assert (= "}" (str.at var36 693)))
(assert (= "t" (str.at var38 501)))
(assert (= "+" (str.at var60 141)))
(assert (= "R" (str.at var3 387)))
(assert (= "," (str.at var14 867)))
(assert (= "|" (str.at var28 874)))
(assert (= "a" (str.at var42 630)))
(assert (= "n" (str.at var7 221)))
(assert (= "P" (str.at var44 124)))
(assert (= "5" (str.at var58 10)))
(assert (= "r" (str.at var48 135)))
(assert (= "9" (str.at var55 333)))
(assert (= "w" (str.at var10 209)))
(assert (= "'" (str.at var26 970)))
(assert (= "/" (str.at var10 976)))
(assert (= "(" (str.at var27 966)))
(assert (= "a" (str.at var35 197)))
(assert (= "d" (str.at var25 274)))
(assert (= "U" (str.at var6 178)))
(assert (= "." (str.at var23 713)))
(assert (= "D" (str.at var48 138)))
(assert (= "x" (str.at var16 367)))
(assert (= "B" (str.at var57 634)))
(assert (= "N" (str.at var54 680)))
(assert (= "C" (str.at var14 325)))
(assert (= "e" (str.at var16 329)))
(assert (= "U" (str.at var48 683)))
(assert (= "Y" (str.at var24 425)))
(assert (= "'" (str.at var27 332)))
(assert (= "u" (str.at var60 320)))
(assert (= "w" (str.at var59 139)))
(assert (= "g" (str.at var57 911)))
(assert (= "Z" (str.at var54 436)))
(assert (= "n" (str.at var56 152)))
(assert (= "m" (str.at var50 460)))
(assert (= "$" (str.at var13 896)))
(assert (= "m" (str.at var26 978)))
(assert (= ")" (str.at var17 902)))
(assert (= "T" (str.at var23 390)))
(assert (= "_" (str.at var4 689)))
(assert (= "+" (str.at var40 759)))
(assert (= "#" (str.at var56 78)))
(assert (= "%" (str.at var58 382)))
(assert (= "V" (str.at var41 198)))
(assert (= "b" (str.at var37 752)))
(assert (= "5" (str.at var29 50)))
(assert (= "T" (str.at var34 98)))
(assert (= "j" (str.at var38 409)))
(assert (= "M" (str.at var24 975)))
(assert (= "V" (str.at var16 805)))
(assert (= "f" (str.at var44 597)))
(assert (= "l" (str.at var43 562)))
(assert (= ">" (str.at var56 769)))
(assert (= "I" (str.at var12 80)))
(assert (= "E" (str.at var17 424)))
(assert (= "~" (str.at var13 235)))
(assert (= ":" (str.at var46 54)))
(assert (= "2" (str.at var29 889)))
(assert (= "3" (str.at var18 663)))
(assert (= "b" (str.at var43 138)))
(assert (= ">" (str.at var53 32)))
(assert (= "S" (str.at var9 692)))
(assert (= ";" (str.at var17 651)))
(assert (= "Z" (str.at var6 493)))
(assert (= ":" (str.at var47 539)))
(assert (= "i" (str.at var1 184)))
(assert (= "d" (str.at var39 70)))
(assert (= "t" (str.at var4 830)))
(assert (= ")" (str.at var13 574)))
(assert (= "$" (str.at var13 494)))
(assert (= "7" (str.at var45 569)))
(assert (= "J" (str.at var15 181)))
(assert (= "k" (str.at var34 161)))
(assert (= "*" (str.at var3 317)))
(assert (= "o" (str.at var34 237)))
(assert (= "3" (str.at var15 645)))
(assert (= "Z" (str.at var59 315)))
(assert (= ":" (str.at var15 85)))
(assert (= "E" (str.at var57 206)))
(assert (= "R" (str.at var30 83)))
(assert (= "%" (str.at var39 696)))
(assert (= ":" (str.at var31 948)))
(assert (= "e" (str.at var25 397)))
(assert (= "N" (str.at var15 284)))
(assert (= ">" (str.at var48 319)))
(assert (= "*" (str.at var6 603)))
(assert (= "i" (str.at var23 282)))
(assert (= "t" (str.at var34 720)))
(assert (= "h" (str.at var12 735)))
(assert (= "N" (str.at var3 801)))
(assert (= "x" (str.at var38 816)))
(assert (= "u" (str.at var49 338)))
(assert (= "E" (str.at var2 979)))
(assert (= "-" (str.at var46 330)))
(assert (= "A" (str.at var11 558)))
(assert (= "m" (str.at var18 746)))
(assert (= "g" (str.at var30 803)))
(assert (= "^" (str.at var59 963)))
(assert (= "x" (str.at var53 680)))
(assert (= "W" (str.at var2 608)))
(assert (= "b" (str.at var25 116)))
(assert (= "\\" (str.at var55 567)))
(assert (= "!" (str.at var16 489)))
(assert (= "6" (str.at var50 472)))
(assert (= "4" (str.at var24 984)))
(assert (= "y" (str.at var4 70)))
(assert (= "W" (str.at var21 37)))
(assert (= "G" (str.at var13 797)))
(assert (= "g" (str.at var6 577)))
(assert (= "W" (str.at var38 85)))
(assert (= "^" (str.at var32 697)))
(assert (= "`" (str.at var60 784)))
(assert (= "y" (str.at var16 674)))
(assert (= "t" (str.at var30 592)))
(assert (= """" (str.at var27 361)))
(assert (= "x" (str.at var32 913)))
(assert (= "Q" (str.at var28 861)))
(check-sat)
(get-model)